3641761581258311058507,3,1,2,06,1,1,2,015,3,1,2,01,2,1,2,014,13,1,2,03,13,1,2,014,13,1,2,03,10,1,2,08,5,1,2,010,15,1,2,015,11,1,2,08,10,1,2,010,9,1,2,08,9,1,2,010,5,1,2,09,5,1,2,014,4,1,2,011,8,1,2,05,12,1,2,01,8,1,2,03,14,1,2,02,12,1,2,02,12,1,2,07,6,1,2,015,7,1,2,014,14,1,2,02,7,1,2,01,3,1,2,012,9,1,2,06,13,1,2,06,12,1,2,012,9,1,2,01,7,1,2,01,3,1,2,014,15,1,2,012,13,1,2,04,9,1,2,03,8,1,2,015,11,1,2,012,14,1,2,010,13,1,2,09,2,1,2,015,15,1,2,05,1,1,2,015,9,1,2,011,5,1,2,09,1,1,2,09,11,1,2,015,10,1,2,09,6,1,2,0